p tw 44 114
5 17
5 6
5 15
5 11
5 16
5 10
10 17
14 17
1 20
1 9
1 11
1 17
1 7
6 13
6 7
6 20
6 9
6 14
9 18
9 16
9 11
9 15
2 16
2 5
2 4
2 18
2 6
12 15
18 44
8 18
8 19
8 16
8 10
8 17
4 10
4 42
4 17
4 19
15 18
15 43
42 44
42 43
24 40
24 27
24 39
24 26
24 28
37 40
25 29
25 28
25 31
25 43
25 32
29 31
21 40
21 22
21 31
21 36
21 39
21 35
21 38
33 38
33 40
33 36
28 29
28 38
28 32
28 44
13 20
13 19
41 42
41 44
17 19
32 37
32 33
34 35
34 38
34 37
22 32
27 30
27 39
27 28
7 10
7 20
7 41
7 15
3 18
3 10
3 20
3 12
35 39
35 36
31 42
31 41
31 40
11 14
11 12
11 16
11 19
26 34
26 40
26 39
26 33
26 38
23 32
23 39
23 25
23 24
23 35
36 38
36 39
36 40
30 31
30 37
